
  32    1
  10

   0   0  10 2 3 4 5 6 7 8 9 10 11 
   3   4   5 19 15 14 13 12 
   5  10   4 16 14 13 12 
   6   8   5 31 28 20 16 14 
   6   7   5 31 20 16 15 13 
   5   6   4 19 18 13 12 
   4   8   4 18 17 16 12 
   8   4   5 31 20 19 18 13 
   9  10   3 28 19 14 
   2   5   3 18 16 15 
   9  10   7 31 28 27 20 19 18 17 
   3  10  11 31 30 29 28 27 26 25 24 22 21 20 
   8  10   8 30 29 28 27 24 23 21 17 
   8   7   6 30 29 27 23 18 17 
  10   8   6 30 28 27 26 25 21 
   3  10   5 29 24 23 22 19 
   4  10   3 26 25 22 
   8   5   3 24 22 21 
   1   9   1 21 
   2   7   1 23 
   2  10   1 32
   8   9   1 32
   7  10   1 32
   6  10   1 32
   6   9   1 32
   5   7   1 32
   5   7   1 32
   6   6   1 32
   9   5   1 32
   4  10   1 32
   3   9   1 32
   0   0   0 
